nNurses = 111;
nHours = 37;
minHours = 6;
maxHours = 8;
maxConsec = 7;
maxPresence = 33;
demand = [14, 19, 19, 16, 21, 21, 21, 20, 22, 19, 14, 16, 21, 24, 23, 23, 23, 21, 24, 21, 20, 17, 19, 18, 22, 23, 24, 21, 21, 24, 21, 24, 23, 22, 19, 19, 18];
